249665
9,21,58,40,19,31,11,38,60,42,75,7,51,17,47,78,4,83,59,30,61,12,25,27,55,16,33,43,57,68,82,32,22,37,18,48,10,1,29,73,64,26,80,70,76,20,67,14,62,36,71,46,13,45,54,66,24,77,35,28,5,44,15,41,49,34,3,79,6,72,56,74,2,8,69,23,81,63,52,39,65,50,53